50 900
225 600 440 1100 440 675 1100 990 375 525 375 600 660 440 525 770 225 660 330 660 550 660 1100 330 300 770 770 990 440 550 990 600 750 75 300 675 550 675 375 525 550 110 675 990 450 1100 220 550 1100 75 
165 440 360 900 360 495 900 810 275 385 275 440 540 360 385 630 165 540 270 540 450 540 900 270 220 630 630 810 360 450 810 440 550 55 220 495 450 495 275 385 450 90 495 810 330 900 180 450 900 55 
